c Staircase at least one
p cnf 35 61
-5 21 0
-4 21 0
-21 5 4 0
-21 20 0
-3 20 0
-20 21 3 0
-20 19 0
-2 19 0
-19 20 2 0
-10 24 0
-9 24 0
-24 10 9 0
-24 23 0
-8 23 0
-23 24 8 0
-23 22 0
-7 22 0
-22 23 7 0
-27 26 0
-13 26 0
-26 27 13 0
-26 25 0
-12 25 0
-25 26 12 0
-14 27 0
-15 27 0
-6 28 0
-7 28 0
-28 6 7 0
-28 29 0
-8 29 0
-29 28 8 0
-29 30 0
-9 30 0
-30 29 9 0
-11 31 0
-12 31 0
-31 11 12 0
-31 32 0
-13 32 0
-32 31 13 0
-32 33 0
-14 33 0
-33 32 14 0
-16 34 0
-17 34 0
-34 16 17 0
1 19 0
19 6 0
20 28 0
21 29 0
5 30 0
6 22 30 0
22 11 0
23 31 0
24 32 0
10 33 0
11 25 33 0
25 16 0
26 34 0
27 35 0
